0 0 0 0
0 1 0 0
0 2 0 0
0 3 0 0
0 4 0 8
0 5 0 8
0 6 0 8
0 7 1 8
0 8 0 10
0 9 2 3
0 10 0 3
0 11 0 10
0 12 2 10
0 13 1 13
0 14 0 14
0 15 2 12
0 16 0 13
0 17 0 16
0 18 2 20
0 19 0 20
0 20 0 13
0 21 1 16
0 22 2 19
0 23 0 22
0 24 1 26
0 25 0 20
0 26 0 23
0 27 0 29
0 28 0 28
0 29 0 32
0 30 1 29
0 31 0 37
